# 3d Lennard-Jones melt

### monodisperse polymer of Binghui paper
#processors 8 1 8
units		lj
atom_style	atomic
atom_modify	map array
boundary p p p

#read_data G_sat_poly_45.lmp
#read_data data.3900000
#region box block 0 2560 0 260 0 1040
#create_box 7 box

#read_restart  restart_nve

#replicate 2 1 2

#read_data 7x16_G_0d_2flakes.lmp add append
#read_restart restart.1500000
#read_data chain_s.2

#read_data 13x16_G_0d_8_flakes_angles02x1x2d.lmp8_flakes_angles0d.lmp add append
#read_data poly_G_merged_212
read_data random_walk_1280_polymer_L_151.lmp
pair_style table/gpu linear 5000

pair_coeff 1 1 table.txt aa_eps_b_10
pair_coeff 1 2 table.txt ab_noreact_eps_b_10
pair_coeff 2 2 table.txt aa_eps_b_10
pair_coeff 3 3 table_g.txt g1g1_eps_10
pair_coeff 3 4 table_g.txt g1g2_eps_10
pair_coeff 4 4 table_g.txt g1g1_eps_10
pair_coeff 5 5 table.txt ll
pair_coeff 1 5 table.txt al_repulse
pair_coeff 2 5 table.txt bl
pair_coeff 1 3 table.txt ag1
pair_coeff 1 4 table.txt ag2
pair_coeff 2 3 table.txt bg1
pair_coeff 2 4 table.txt bg2
pair_coeff 6 6 table.txt s1s1
pair_coeff 6 7 table.txt s1s2
pair_coeff 7 7 table.txt s2s2
pair_coeff 3 6 table.txt g1s1
pair_coeff 4 7 table.txt g1s2
pair_coeff 3 7 table.txt g1s2
pair_coeff 4 6 table.txt g2s1
pair_coeff 3 5 table.txt g1l
pair_coeff 4 5 table.txt g2l
pair_coeff 5 6 table.txt ls1
pair_coeff 5 7 table.txt ls2
pair_coeff 1 6 table.txt as1
pair_coeff 1 7 table.txt as2
pair_coeff 2 7 table.txt bs2
pair_coeff 2 6 table.txt bs1
pair_coeff 1 3 table.txt al_attract
pair_coeff 1 4 table.txt al_attract

pair_coeff 8 8 table.txt ll
pair_coeff 1 8 table.txt al_repulse
pair_coeff 2 8 table.txt bl
pair_coeff 3 8 table.txt aa_eps_b_10
pair_coeff 4 8 table.txt aa_eps_b_10
pair_coeff 8 6 table.txt ls1
pair_coeff 8 7 table.txt ls2
pair_coeff 5 8 table.txt ll
#create_atoms	1 single 0 0 0

mass		* 25.01

timestep 0.005

#write_data poly_G_merged
#@quit


reset_atom_ids

variable	t equal 0.25
variable thigh equal 0.35
variable tint equal 0.175
variable tlow equal 0.0115
variable	c equal 2.35
variable	s equal $c/2^(1./6.)
variable 	pp equal 0.02
 

pair_modify shift yes
neighbor	0.3 bin
neigh_modify	every 20 delay 0 check yes
thermo_style    custom step temp press density pe etotal temp vol  pxx pyy pzz pxz lx ly lz enthalpy
thermo		1000


include script.1_walls
#delete_atoms group all


#variable repeat_x equal 8
#variable repeat_y equal 2
#variable repeat_z equal 10
#variable b_length equal 1.15
#variable	a4 loop ${repeat_y}
#label		loopa4
#variable	a2 loop ${repeat_z}
#label		loopa2
#variable	myz equal zlo+(zhi-zlo)*(${a4}-1)*(1/${repeat_z})
#variable	myy equal ylo+(yhi-ylo)*(${a2}-1)*(1/${repeat_z})
#variable	myx equal xlo+2.5
#variable	a5 loop ${repeat_x}
#label		loopa5
#variable	a1 loop 75
#label		loopa1
#create_atoms	1 single ${myx} ${myy} ${myz}
#variable	myx equal ${myx}+1.1305
#create_atoms	2 single ${myx} ${myy} ${myz}
#variable	myx equal ${myx}+1.1305
#next		a1
#jump		in.pol_bing3 loopa1
#create_atoms	1 single ${myx} ${myy} ${myz}
#variable	myx equal xlo+2.5+(xhi-xlo)*(${a5})*(1/${repeat_x})
#next		a5
#jump		in.pol_bing3 loopa5
#next		a2
#jump		in.pol_bing3 loopa2
#next		a4
#jump		in.pol_bing3 loopa4


#compute 1 all coord/atom cutoff 1.51

thermo 1000
thermo_style    custom step density temp pe etotal temp vol press pxx pyy pzz pxz lx ly lz enthalpy
#run 0


dump            dump_geo all custom 100000 geodump3 id type x y z
#run 1
write_data polyG_largebox

#create_atoms	5 random 4800 46521 NULL

#group g_sat type 3 4 7 
#group saturator type 7 
#group g555 type 5

#delete_atoms group g555

#create_atoms   5 random 8688 46521 NULL
group g55 type 5
#fix 1 g55 nve/limit 0.1
#run 200000
#unfix 1

#variable tnow0 equal temp

#variable LX equal lx 
#variable LY equal ly 
#variable LZ equal lz 

#variable hashh_x equal 1
#variable hashh_y equal 1
#variable hashh_z equal 1

#variable rep_x equal 0
#variable rep_y equal 0
#variable rep_z equal 0

#variable        a8 loop ${hashh_z}-1
#label           loopa8
#variable rep_z equal ${rep_z}+(${LZ}/${hashh_z})
#variable        a9 loop ${hashh_y}-1
#label           loopa9
#variable rep_y equal ${rep_y}+(${LY}/${hashh_y})
#variable        a10 loop ${hashh_x}-1
#label           loopa10
#read_data Gr_saturated_8_8_1 add append shift ${rep_x} ${rep_y} ${rep_z} 
#variable rep_x equal ${rep_x}+(${LX}/${hashh_x})
#next            a10
#jump            in.pol_bing3 loopa10
#variable rep_x equal 0
#next            a9
#jump            in.pol_bing3 loopa9
#variable rep_y equal 0
#next            a8
#jump            in.pol_bing3 loopa8

#write_data chain_s.g
group g4 type 4

#minimize 1.0e-4 1.0e-6 100 1000

group g_sat type 3 4 6 7

delete_atoms group g_sat

group saturator type 7 
group non_g_sat type 1 2 5
group non_sat type 1 2 3 4 5
group poly type 1 2

restart 100000 restart.*
restart 1000 restart.current.1 restart.current.2

#velocity        non_g_sat create ${tint} 87287

#fix 1 all nve/limit 0.1
#run 200000
#unfix 1

#velocity all create ${tint} 546212

#fix nvt_2 all nvt temp ${tint} ${tint} 0.1
#run 2000000
#unfix nvt_2

compute 2 all coord/atom cutoff 1.51
compute         3 all reduce sum c_2

thermo_style    custom step density temp pe etotal vol press pxx pyy pzz pxz lx ly lz
run 0

#variable        freeat atom "c_2 == 0.0"
#group           freeatoms variable freeat
#group           untethered subtract freeatoms non_sat
##delete_atoms group untethered

##write_data chain_s_001

#write_data chain_binder.large
#write_restart  restart.chain_binder.large

#velocity all create ${tint} 546212
#velocity poly set 0 0 0
#fix   sfp poly setforce 0 0 0


fix             nvt_2 all nvt temp ${tint} ${tint} 0.1
run 0000
unfix nvt_2


#unfix sfp

velocity all create ${tint} 546212
velocity g_sat set 0 0 0
fix   sf g_sat setforce 0 0 0

#fix 1 all nve/limit 0.1
#run 100000
#unfix 1

#fix            nvt_2 all nvt temp ${tint} ${tint} 0.1
#run 300000
#unfix nvt_2
#write_data chain_s.1


#fix		nvt_2 all nvt temp ${tint} ${tint} 0.1
#run 500000
#unfix nvt_2

#write_data chain_s.2_large

#
#replicate 4 1 2

#change_box all x scale 62.5 z scale 62.5

#delete_atoms group g55


#create_atoms   5 random 115840 46521 NULL

reset_atom_ids
group gr5 type 5

#velocity all create ${tint} 546212
comm_style tiled
fix b all balance 5000 1.05 rcb
#comm_style tiled
info system

#fix 1 gr5 nve/limit 0.1
#run 00000
#unfix 1

#velocity all create ${tint} 546212

fix             nvt_2 all nvt temp ${tint} ${tint} 0.1
#fix             2 all deform 1 x scale 0.016 y scale 1 z scale 0.016
#fix 1 all deform 1 x final 0.0 4660.5 y final 0 31.8697 z final 0.0 4660.5 units box
run 200000
unfix nvt_2
#unfix wall1
#quit

create_atoms 5 random 115840 984621 blk1 overlap 3.0 maxtry 500000
write_data data.polylink
velocity all create ${tint} 546212


fix             nvt_2 all nvt temp ${tint} ${tint} 0.1
#fix             2 all deform 1 x scale 0.016 y scale 1 z scale 0.016
###fix 1 all deform 1 x final 0.0 4660.5 y final 0 31.8697 z final 0.0 4660.5 units box
run 1000000
unfix nvt_2

write_restart restart.beforedeform
#include script.1_walls
unfix wall1
quit
