# 3d Lennard-Jones melt

### monodisperse polymer of Binghui paper
#processors 8 1 8
units		lj
atom_style	atomic
atom_modify	map array
boundary p p p

read_restart restart.beforedeform
pair_style table linear 5000

pair_coeff 1 1 table.txt aa_eps_b_10
pair_coeff 1 2 table.txt ab_noreact_eps_b_10
pair_coeff 2 2 table.txt aa_eps_b_10
pair_coeff 3 3 table_g.txt g1g1_eps_10
pair_coeff 3 4 table_g.txt g1g2_eps_10
pair_coeff 4 4 table_g.txt g1g1_eps_10
pair_coeff 5 5 table.txt ll
pair_coeff 1 5 table.txt al_repulse
pair_coeff 2 5 table.txt bl
pair_coeff 1 3 table.txt ag1
pair_coeff 1 4 table.txt ag2
pair_coeff 2 3 table.txt bg1
pair_coeff 2 4 table.txt bg2
pair_coeff 6 6 table.txt s1s1
pair_coeff 6 7 table.txt s1s2
pair_coeff 7 7 table.txt s2s2
pair_coeff 3 6 table.txt g1s1
pair_coeff 4 7 table.txt g1s2
pair_coeff 3 7 table.txt g1s2
pair_coeff 4 6 table.txt g2s1
pair_coeff 3 5 table.txt g1l
pair_coeff 4 5 table.txt g2l
pair_coeff 5 6 table.txt ls1
pair_coeff 5 7 table.txt ls2
pair_coeff 1 6 table.txt as1
pair_coeff 1 7 table.txt as2
pair_coeff 2 7 table.txt bs2
pair_coeff 2 6 table.txt bs1
pair_coeff 1 3 table.txt al_attract
pair_coeff 1 4 table.txt al_attract

pair_coeff 8 8 table.txt ll
pair_coeff 1 8 table.txt al_repulse
pair_coeff 2 8 table.txt bl
pair_coeff 3 8 table.txt aa_eps_b_10
pair_coeff 4 8 table.txt aa_eps_b_10
pair_coeff 8 6 table.txt ls1
pair_coeff 8 7 table.txt ls2
pair_coeff 5 8 table.txt ll

mass		* 25.01
timestep 0.005
reset_atom_ids
variable	t equal 0.25
variable thigh equal 0.35
variable tint equal 0.175
variable tlow equal 0.0115
variable	c equal 2.35
variable	s equal $c/2^(1./6.)
variable 	pp equal 0.02
#include script.1_walls 
pair_modify shift yes
neighbor	0.3 bin
neigh_modify	every 20 delay 0 check yes
thermo_style    custom step temp press density pe etotal temp vol  pxx pyy pzz pxz lx ly lz enthalpy
thermo		1000
#compute 1 all coord/atom cutoff 1.51
thermo 1000
thermo_style    custom step density temp pe etotal temp vol press pxx pyy pzz pxz lx ly lz enthalpy
dump            dump_geo all custom 100000 geodump3 id type x y z
#write_data polyG_largebox
group g55 type 5
group g4 type 4

group g_sat type 3 4 6 7
delete_atoms group g_sat
group saturator type 7 
group non_g_sat type 1 2 5
group non_sat type 1 2 3 4 5
group poly type 1 2

restart 100000 restart.*
restart 1000 restart.current.1 restart.current.2
compute 2 all coord/atom cutoff 1.51
compute         3 all reduce sum c_2

thermo_style    custom step density temp pe etotal c_3 vol press pxx pyy pzz pxz lx ly lz enthalpy
run 0

velocity all create ${tint} 546212
velocity g_sat set 0 0 0
fix   sf g_sat setforce 0 0 0

reset_atom_ids
group gr5 type 5

comm_style tiled
fix b all balance 5000 1.05 rcb
info system

velocity all create ${tint} 546212

fix		nvt_2 all nvt temp ${tint} ${tint} 0.1
fix             2 all deform 100 x scale 0.0729 y scale 0.063496 z scale 0.073 remap x
#fix             2 all deform 100 x scale 0.999 y scale 0.999 z scale 0.999 remap x
#fix 1 all deform 1 x final 0.0 4660.5 y final 0 31.8697 z final 0.0 4660.5 units box
run 2500000
unfix nvt_2 
unfix 2

write_restart restart.first_compressed
write_data data.first_compressed
undump dump_geo
quit
